Compound Id	sd
1	16.5
2	13
3	9
4	8
5	7.68
6	7.7
7	7
8	7
9	6
10	7
11	7
12	6.8
13	7
14	6.5
15	5.8
16	7.2
17	5.8
18	5.8
19	5.5
20	5.9
21	5.9
22	5.9
23	5.9
24	5.6
25	5.2
26	4.33
27	5.2
28	5.7
29	5.4
30	4.1
31	5.1
32	4.9
33	4.7
34	4.5
35	4.3
36	4.2
37	4
38	3.9
39	3.8
40	4.8
41	6.4
42	5
43	5
44	5
45	4.1
46	5.4
47	6.8
48	5.4
49	5.4
50	5.1
51	5.8
52	10.4
53	11.1
54	9.4
55	8.35
56	6.4
57	6.5
58	5.9
59	8
60	6.7
61	6.6
62	6.1
63	5.9
64	5.9
65	7
66	5.5
67	5.1
68	6
69	4.7
70	6.7
71	6.3
72	5.4
73	11
74	9.7
75	9.7
76	9.4
77	9.4
78	9.6
79	9.1
80	9.6
81	7.9
82	9
83	9
84	9
85	9
86	9
87	9.4
88	9.4
89	9.4
90	8.6
91	8.1
92	9.1
93	9.1
94	9
95	9.1
96	9
97	7.8
98	7.3
99	7.8
100	7.8
101	7.8
102	7.8
103	8.1
104	8.2
105	7.16
106	9.05
107	7.4
108	7.8
109	6.8
110	6.9
111	6.9
112	6
113	5.7
114	5.3
115	5
116	4.7
117	4.5
118	4.3
119	4.1
120	3.8
121	12.1
122	10.1
123	3.02
124	3.6
125	8.6
126	7.5
127	6.9
128	6.9
129	6.9
130	6.9
131	6.9
132	4
133	3.7
134	3.6
135	8.8
136	9.8
137	10.2
138	10.2
139	7
140	6.1
141	6.8
142	6.1
143	12
144	11.5
145	12.3
146	13.1
147	13.1
148	13.1
149	12.1
150	9
151	10.9
152	7.1
153	7.1
154	8
155	8.6
156	5.3
157	8
158	7.1
159	6.7
160	6.7
161	7
162	7
163	6
164	6.5
165	5.8
166	6.1
167	6
168	6.6
169	7.1
170	7.29
171	5.8
172	6
173	6.9
174	5.7
175	5.3
176	5.6
177	5.4
178	5.6
179	6.1
180	6.6
181	6.6
182	6.6
183	4.6
184	6.2
185	4.3
186	5.4
187	5.8
188	5.4
189	5.1
190	4.6
191	5.4
192	5.8
193	3.7
194	3.8
195	5.2
196	4.8
197	5.2
198	5.5
199	5.3
200	4.9
201	4.7
202	4.4
203	4.2
204	4.1
205	4.3
206	6.4
207	6.4
208	6.4
209	6.4
210	6.4
211	6.4
212	5.2
213	6.2
214	6
215	6
216	5.4
217	5.6
218	5.5
219	5.4
220	4.7
221	5.23
222	6.1
223	6.7
224	6.96
225	6.96
226	6.96
227	6.1
228	6.1
229	5.7
230	6.7
231	6.7
232	6.5
233	6.1
234	5.9
235	6.4
236	5.2
237	5
238	5
239	5.1
240	5.1
241	5.1
242	5
243	5.1
244	5.1
245	5.2
246	5.5
247	5.4
248	4.2
249	4.2
250	5.3
251	5.3
252	5.62
253	5.3
254	6.4
255	5.2
256	5.3
257	6
258	6.2
259	6.8
260	6.8
261	5.53
262	16.1
263	12.5
264	9.5
265	7.1
266	8.1
267	6.4
268	5.8
269	7.2
270	21.1
271	7.2
272	7.2
273	10.7
274	8.1
275	5.4
276	5.2
277	5
278	5
279	14.6
280	8
281	6.7
282	6.7
283	7.8
284	8.4
285	8.4
286	7.3
287	8.3
288	12.8
289	7.3
290	8
291	7.9
292	8.2
293	6.2
294	14.4
295	12.24
296	7.73
297	5.6
298	5.9
299	11.4
300	9.4
301	5.4
302	6.7
303	12.6
304	9.6
305	10.6
306	5.7
307	16.8
308	19
309	12
310	12.7
311	11.2
312	10.9
313	10
314	13.2
315	9
316	8.2
317	8.03
318	9.65
319	9.8
320	9
321	9
322	10.9
323	7.2
324	7.49
325	7.3
326	6.4
327	7.03
328	6.1
329	6.64
330	5.5
331	5.2
332	8.5
333	5.1
334	5
335	5
336	5.2
337	5
338	5
339	7.2
340	6.45
341	6.55
342	6.8
343	9.7
344	18
345	6.1
346	6.4
347	6.4
348	6.4
349	6.4
350	6.4
351	9.1
352	7.6
353	7.6
354	7.6
355	7.2
356	7.2
357	4.2
358	11
359	16.6
360	11.5
361	14.8
362	8.7
363	13.5
364	13
365	12.6
366	19
367	13.2
368	7.72
369	11.5
370	13.7
371	13.3
372	13.3
373	13.2
374	10.9
375	9.2
376	9.8
377	9.8
378	12.5
379	9.7
380	10.8
381	14.4
382	16
383	14.8
384	13.4
385	9.8
386	9.6
387	9.8
388	8.2
389	8
390	8.22
391	11
392	5.1
393	4.9
394	5.1
395	4.9
396	14.6
397	15.1
398	6.65
399	4.9
400	17
401	8
402	6.8
403	8.06
404	8.6
405	9.6
406	7.7
407	7.7
408	20.5
409	11.9
410	7.6
411	13.1
412	9.5
413	20
414	13.5
415	11.3
416	18.8
417	16
418	10.5
419	11.8
420	13.4
421	13
422	11
423	11.8
424	11.8
425	9.9
426	9.9
427	5.8
428	7.5
429	8.3
430	12.5
431	9.6
432	2.9
433	7.59
434	6.9
435	2.6
436	5.3
437	2.5
438	2.3
439	3
440	5.6
441	8
442	13.9
443	12
444	11.3
445	4.9
446	2.6
447	7.6
448	15.1
449	14.8
450	8.3
451	14.3
452	5.5
453	11.4
454	7.2
455	6
456	9.5
457	17.6
458	10.4
459	8
460	9.14
461	8.96
462	9.5
463	11.3
464	9.5
465	11.4
466	9.9
467	10.1
468	7
469	6.7
470	9
471	7.8
472	6
473	6
474	7.52
475	10.45
476	6.9
477	14.3
478	6.4
479	8.2
480	6
481	8.6
482	6
483	6.66
484	13.4
485	7.06
486	17.2
487	15.4
488	10.1
489	8.6
490	19.1
491	16
492	14.5
493	12.1
494	12.6
495	10.3
496	10.5
497	7.1
498	7.1
499	9.2
500	7.8
501	7.8
502	6.5
503	6.7
504	6.7
505	6.5
506	11
507	10
508	9.9
509	8.6
510	5.7
511	16
512	6.6
513	12.7
514	23.5
515	16
516	13.3
517	12.2
518	22.2
519	17.3
520	18.4
521	21.3
522	18
523	13.8
524	9.8
525	13.5
526	11
527	20.7
528	14.4
529	14
530	11.4
531	9.8
532	11.6
533	16.6
534	9.1
535	4.1
536	10
537	13.4
538	9.9
539	11.6
540	7.8
541	9.2
542	7.6
543	7.6
544	7.6
545	9.5
546	14.4
547	10
548	7.4
549	8
550	9.4
551	16.9
552	6.4
553	5.4
554	9.5
555	6.2
556	22.2
557	17.3
558	13.8
559	12
560	10.9
561	16
562	14
563	17.34
564	15.5
565	14.4
566	7.6
567	7.6
568	11.5
569	11.4
570	9.6
571	19
572	8.2
573	11.5
574	8
575	12.4
576	8.6
577	7
578	18
579	13.6
580	8.4
581	6.1
582	6.7
583	13.9
584	11.5
585	8.6
586	11.5
587	5.66
588	14.9
589	5.2
590	5.6
591	9.6
592	3.8
593	4.8
594	7.5
595	11.8
596	11.3
597	10.7
598	8.8
599	9.1
600	17.3
601	15.2
602	15.2
603	9.2
604	23.5
605	8.1
606	15.2
607	15.1
608	20.6
609	8
610	21
611	9.1
612	12.2
613	8.48
614	13.1
615	8.3
616	12.9
617	8.88
618	6.1
619	7.45
620	7.45
621	5.03
622	5.1
623	5.1
624	5.1
625	5.1
626	5.1
627	7.6
628	7
629	5.7
630	6.4
631	6.8
632	6.3
633	6.4
634	7.4
635	7.2
636	7.6
637	2.5
638	11.2
639	8.6
640	7.84
641	6.9
642	5.1
643	4.9
644	4.9
645	7.4
646	11.5
647	7.8
648	5.3
649	5.7
650	9.7
651	10.9
652	8
653	9.7
654	2.47
655	8.2
656	10.9
657	5.6
658	7.9
659	10.4
660	11.6
661	7.2
662	11.9
663	14.3
664	4.7
665	14.5
666	14.5
667	4
668	3.9
669	3.8
670	3.7
671	7.5
672	13.5
673	8.4
674	11.6
675	6.56
676	9.05
677	15
678	17.9
679	21.7
680	9
681	8.7
682	7.5
683	10
684	9.3
685	8.6
686	6.7
687	9.8
688	15.1
689	9.8
690	5.6
691	7.6
692	11.6
693	11.6
694	11.6
695	9.8
696	9.8
697	8.2
698	8.2
699	8.2
700	8.2
701	8.2
702	9.8
703	8.4
704	12.5
705	11.9
706	11.9
707	14.3
708	10.8
709	9.8
710	9.8
711	9.8
712	7.6
713	8.1
714	7.4
715	5.5
716	7.7
717	5.5
718	11.2
719	6.6
720	7.2
721	8.2
722	8.7
723	9.8
724	15.9
725	10.5
726	10.5
727	18.6
728	20.5
729	13.8
730	9.6
731	14
732	15.6
733	12.7
734	11.7
735	12.3
736	14.3
737	7.5
738	13.7
739	9.2
740	8.38
741	7.2
742	7.2
743	8.1
744	8.3
745	15.7
746	8.8
747	8.8
748	8.8
749	10.8
750	15.9
751	5.48
752	6.15
753	9.07
754	6.95
755	6.95
756	5.8
757	5
758	5
759	4.6
760	4.6
761	14.41
762	19
763	8.62
764	10.98
765	11.4
766	4.12
767	3.92
768	17
769	14.4
770	13.7
771	9.79
772	8.33
773	8.82
774	5
775	5.1
776	9
777	6.3
778	7.5
779	9.8
780	9.5
781	5.74
782	8.7
783	10.23
784	6.63
785	11.7
786	7.82
787	6.81
788	5.05
789	6.51
790	12.1
791	13.1
792	10.9
793	8.7
794	8.5
795	12.7
796	8.8
797	11.9
798	10
799	10.4
800	8.3
801	10.6
802	10.7
803	14
804	23.5
805	7
806	10.6
807	9.69
808	9.15
809	10.9
810	7.35
811	7.36
812	12.3
813	8.01
814	13.21
815	8.5
816	9.9
817	7.7
818	8.8
819	10.6
820	9.6
821	8.8
822	10.1
823	9
824	18.4
825	10
826	18.1
827	9.8
828	7.5
829	16.6
830	21.9
831	12.4
832	16.5
833	16.9
834	12.8
835	7
836	17.9
837	8.6
838	11.7
839	18
840	8.7
841	10.6
842	12.7
843	16.8
844	13.9
845	18
846	15.2
847	11.5
848	9.8
849	11
850	8.54
851	7.8
852	12.9
853	9.8
854	12.1
855	13.6
856	12
857	13.1
858	10.7
859	14.8
860	13.3
861	9.95
862	11
863	8.8
864	11.9
865	9.5